Route #1: 73 112 169 78 147 77 86 125 137 151 174 41 152 87 186 146 177 123 52 71 101 47 5 176 12 24 97 143 95
Route #2: 64 25 183 136 167 148 141 98 84 153 180 61 32 40 18 185 76 70 181 126 54 48 130 56 8 100 68 81
Route #3: 105 19 188 57 63 66 171 13 120 168 110 4 163 128 34 103 108 129 156 133 72 139 149 45 99 131
Route #4: 10 43 58 28 138 85 80 150 30 39 36 22 38 2 6 35 109 89 104 142 159 102
Route #5: 172 127 44 88 165 1 184 160 182 83 29 37
Route #6: 14 67 121 55 59 91 9 114 53 154 189 140 124 187 27 15 3 96 90 42 62 179 135
Route #7: 31 46 92 145 115 144 94 50 21 178 69 164 111 74 161 134 132 173 157 117 26 49 119 106
Route #8: 118 16 166 51 93 75 158 23 113 107 33 65 20 162 7 155 17 79 60 116 82 122 11 175 170
Cost 16987
